# Objective value = 49
A_1_0 0
A_1_1 0
A_1_2 0
A_1_3 0
A_2_0 0
A_2_1 0
A_2_2 1
A_2_3 0
A_3_0 0
A_3_1 1
A_3_2 0
A_3_3 0
A_4_0 1
A_4_1 0
A_4_2 1
A_4_3 0
A_5_0 0
A_5_1 1
A_5_2 0
A_5_3 0
A_6_0 1
A_6_1 0
A_6_2 0
A_6_3 0
A_7_0 0
A_7_1 0
A_7_2 0
A_7_3 0
A_8_0 0
A_8_1 0
A_8_2 1
A_8_3 0
A_9_0 0
A_9_1 1
A_9_2 0
A_9_3 0
A_10_0 1
A_10_1 0
A_10_2 1
A_10_3 0
A_11_0 0
A_11_1 1
A_11_2 0
A_11_3 0
A_12_0 1
A_12_1 0
A_12_2 0
A_12_3 0
A_13_0 0
A_13_1 0
A_13_2 0
A_13_3 0
A_14_0 0
A_14_1 0
A_14_2 1
A_14_3 0
A_15_0 0
A_15_1 1
A_15_2 0
A_15_3 0
A_16_0 1
A_16_1 0
A_16_2 1
A_16_3 0
A_17_0 0
A_17_1 1
A_17_2 0
A_17_3 0
A_18_0 1
A_18_1 0
A_18_2 0
A_18_3 0
A_19_0 0
A_19_1 0
A_19_2 0
A_19_3 0
A_20_0 0
A_20_1 0
A_20_2 1
A_20_3 0
A_21_0 0
A_21_1 1
A_21_2 0
A_21_3 0
A_22_0 1
A_22_1 0
A_22_2 1
A_22_3 0
A_23_0 0
A_23_1 1
A_23_2 0
A_23_3 0
A_24_0 1
A_24_1 0
A_24_2 0
A_24_3 0
A_25_0 0
A_25_1 0
A_25_2 0
A_25_3 0
A_26_0 0
A_26_1 0
A_26_2 1
A_26_3 0
A_27_0 0
A_27_1 1
A_27_2 0
A_27_3 0
A_28_0 1
A_28_1 0
A_28_2 1
A_28_3 0
A_29_0 0
A_29_1 1
A_29_2 0
A_29_3 0
A_30_0 1
A_30_1 0
A_30_2 0
A_30_3 0
A_31_0 0
A_31_1 0
A_31_2 0
A_31_3 0
A_32_0 0
A_32_1 0
A_32_2 1
A_32_3 0
A_33_0 0
A_33_1 1
A_33_2 0
A_33_3 0
A_34_0 1
A_34_1 0
A_34_2 1
A_34_3 0
A_35_0 0
A_35_1 1
A_35_2 0
A_35_3 0
A_36_0 1
A_36_1 0
A_36_2 0
A_36_3 0
A_37_0 0
A_37_1 0
A_37_2 0
A_37_3 0
A_38_0 0
A_38_1 0
A_38_2 1
A_38_3 0
A_39_0 0
A_39_1 1
A_39_2 0
A_39_3 0
A_40_0 1
A_40_1 0
A_40_2 1
A_40_3 0
A_41_0 0
A_41_1 1
A_41_2 0
A_41_3 0
A_42_0 1
A_42_1 0
A_42_2 0
A_42_3 0
A_43_0 0
A_43_1 0
A_43_2 0
A_43_3 0
A_44_0 0
A_44_1 0
A_44_2 1
A_44_3 0
A_45_0 0
A_45_1 1
A_45_2 0
A_45_3 0
A_46_0 1
A_46_1 0
A_46_2 1
A_46_3 0
A_47_0 0
A_47_1 1
A_47_2 0
A_47_3 0
A_48_0 1
A_48_1 0
A_48_2 0
A_48_3 0
A_49_0 0
A_49_1 0
A_49_2 0
A_49_3 0
A_50_0 0
A_50_1 0
A_50_2 1
A_50_3 0
x_1_4 0
x_2_0 0
x_1_5 0
x_2_1 0
x_1_2 0
x_2_6 0
x_1_3 0
x_2_7 0
x_1_0 1
x_2_2 1
d_1_0 1
x_1_1 0
x_2_3 0
d_1_1 0
x_1_6 0
x_2_4 0
d_1_2 0
x_1_7 0
x_2_5 0
d_1_3 0
x_3_0 0
x_3_1 0
x_3_6 1
x_3_7 0
x_3_2 0
d_2_0 0
x_3_3 0
d_2_1 0
x_3_4 0
d_2_2 0
x_3_5 1
d_2_3 1
x_4_0 0
x_4_1 1
x_4_6 0
x_4_7 0
x_4_2 1
d_3_0 1
x_4_3 0
d_3_1 0
x_4_4 1
d_3_2 1
x_4_5 0
d_3_3 0
x_5_0 1
x_5_1 0
x_5_6 1
x_5_7 0
x_5_2 0
d_4_0 0
x_5_3 0
d_4_1 1
x_5_4 0
d_4_2 0
x_5_5 1
d_4_3 1
x_6_0 0
x_6_1 1
x_6_6 0
x_6_7 0
x_6_2 0
d_5_0 1
x_6_3 0
d_5_1 0
x_6_4 1
d_5_2 1
x_6_5 0
d_5_3 0
x_7_0 1
x_7_1 0
x_7_6 0
x_7_7 0
x_7_2 0
d_6_0 0
x_7_3 0
d_6_1 1
x_7_4 0
d_6_2 0
x_7_5 0
d_6_3 0
x_8_0 0
x_8_1 0
x_8_6 0
x_8_7 0
x_8_2 1
d_7_0 1
x_8_3 0
d_7_1 0
x_8_4 0
d_7_2 0
x_8_5 0
d_7_3 0
x_9_0 0
x_9_1 0
x_9_6 1
x_9_7 0
x_9_2 0
d_8_0 0
x_9_3 0
d_8_1 0
x_9_4 0
d_8_2 0
x_9_5 1
d_8_3 1
x_10_0 0
x_10_1 1
x_10_6 0
x_10_7 0
x_10_2 1
d_9_0 1
x_10_3 0
d_9_1 0
x_10_4 1
d_9_2 1
x_10_5 0
d_9_3 0
x_11_0 1
x_11_1 0
x_11_6 1
x_11_7 0
x_11_2 0
d_10_0 0
x_11_3 0
d_10_1 1
x_11_4 0
d_10_2 0
x_11_5 1
d_10_3 1
x_12_0 0
x_12_1 1
x_12_6 0
x_12_7 0
x_12_2 0
d_11_0 1
x_12_3 0
d_11_1 0
x_12_4 1
d_11_2 1
x_12_5 0
d_11_3 0
x_13_0 1
x_13_1 0
x_13_6 0
x_13_7 0
x_13_2 0
d_12_0 0
x_13_3 0
d_12_1 1
x_13_4 0
d_12_2 0
x_13_5 0
d_12_3 0
x_14_0 0
x_14_1 0
x_14_6 0
x_14_7 0
x_14_2 1
d_13_0 1
x_14_3 0
d_13_1 0
x_14_4 0
d_13_2 0
x_14_5 0
d_13_3 0
x_15_0 0
x_15_1 0
x_15_6 1
x_15_7 0
x_15_2 0
d_14_0 0
x_15_3 0
d_14_1 0
x_15_4 0
d_14_2 0
x_15_5 1
d_14_3 1
x_16_0 0
x_16_1 1
x_16_6 0
x_16_7 0
x_16_2 1
d_15_0 1
x_16_3 0
d_15_1 0
x_16_4 1
d_15_2 1
x_16_5 0
d_15_3 0
x_17_0 1
x_17_1 0
x_17_6 1
x_17_7 0
x_17_2 0
d_16_0 0
x_17_3 0
d_16_1 1
x_17_4 0
d_16_2 0
x_17_5 1
d_16_3 1
x_18_0 0
x_18_1 1
x_18_6 0
x_18_7 0
x_18_2 0
d_17_0 1
x_18_3 0
d_17_1 0
x_18_4 1
d_17_2 1
x_18_5 0
d_17_3 0
x_19_0 1
x_19_1 0
x_19_6 0
x_19_7 0
x_19_2 0
d_18_0 0
x_19_3 0
d_18_1 1
x_19_4 0
d_18_2 0
x_19_5 0
d_18_3 0
x_20_0 0
x_20_1 0
x_20_6 0
x_20_7 0
x_20_2 1
d_19_0 1
x_20_3 0
d_19_1 0
x_20_4 0
d_19_2 0
x_20_5 0
d_19_3 0
x_21_0 0
x_21_1 0
x_21_6 1
x_21_7 0
x_21_2 0
d_20_0 0
x_21_3 0
d_20_1 0
x_21_4 0
d_20_2 0
x_21_5 1
d_20_3 1
x_22_0 0
x_22_1 1
x_22_6 0
x_22_7 0
x_22_2 1
d_21_0 1
x_22_3 0
d_21_1 0
x_22_4 1
d_21_2 1
x_22_5 0
d_21_3 0
x_23_0 1
x_23_1 0
x_23_6 1
x_23_7 0
x_23_2 0
d_22_0 0
x_23_3 0
d_22_1 1
x_23_4 0
d_22_2 0
x_23_5 1
d_22_3 1
x_24_0 0
x_24_1 1
x_24_6 0
x_24_7 0
x_24_2 0
d_23_0 1
x_24_3 0
d_23_1 0
x_24_4 1
d_23_2 1
x_24_5 0
d_23_3 0
x_25_0 1
x_25_1 0
x_25_6 0
x_25_7 0
x_25_2 0
d_24_0 0
x_25_3 0
d_24_1 1
x_25_4 0
d_24_2 0
x_25_5 0
d_24_3 0
x_26_0 0
x_26_1 0
x_26_6 0
x_26_7 0
x_26_2 1
d_25_0 1
x_26_3 0
d_25_1 0
x_26_4 0
d_25_2 0
x_26_5 0
d_25_3 0
x_27_0 0
x_27_1 0
x_27_6 1
x_27_7 0
x_27_2 0
d_26_0 0
x_27_3 0
d_26_1 0
x_27_4 0
d_26_2 0
x_27_5 1
d_26_3 1
x_28_0 0
x_28_1 1
x_28_6 0
x_28_7 0
x_28_2 1
d_27_0 1
x_28_3 0
d_27_1 0
x_28_4 1
d_27_2 1
x_28_5 0
d_27_3 0
x_29_0 1
x_29_1 0
x_29_6 1
x_29_7 0
x_29_2 0
d_28_0 0
x_29_3 0
d_28_1 1
x_29_4 0
d_28_2 0
x_29_5 1
d_28_3 1
x_30_0 0
x_30_1 1
x_30_6 0
x_30_7 0
x_30_2 0
d_29_0 1
x_30_3 0
d_29_1 0
x_30_4 1
d_29_2 1
x_30_5 0
d_29_3 0
x_31_0 1
x_31_1 0
x_31_6 0
x_31_7 0
x_31_2 0
d_30_0 0
x_31_3 0
d_30_1 1
x_31_4 0
d_30_2 0
x_31_5 0
d_30_3 0
x_32_0 0
x_32_1 0
x_32_6 0
x_32_7 0
x_32_2 1
d_31_0 1
x_32_3 0
d_31_1 0
x_32_4 0
d_31_2 0
x_32_5 0
d_31_3 0
x_33_0 0
x_33_1 0
x_33_6 1
x_33_7 0
x_33_2 0
d_32_0 0
x_33_3 0
d_32_1 0
x_33_4 0
d_32_2 0
x_33_5 1
d_32_3 1
x_34_0 0
x_34_1 1
x_34_6 0
x_34_7 0
x_34_2 1
d_33_0 1
x_34_3 0
d_33_1 0
x_34_4 1
d_33_2 1
x_34_5 0
d_33_3 0
x_35_0 1
x_35_1 0
x_35_6 1
x_35_7 0
x_35_2 0
d_34_0 0
x_35_3 0
d_34_1 1
x_35_4 0
d_34_2 0
x_35_5 1
d_34_3 1
x_36_0 0
x_36_1 1
x_36_6 0
x_36_7 0
x_36_2 0
d_35_0 1
x_36_3 0
d_35_1 0
x_36_4 1
d_35_2 1
x_36_5 0
d_35_3 0
x_37_0 1
x_37_1 0
x_37_6 0
x_37_7 0
x_37_2 0
d_36_0 0
x_37_3 0
d_36_1 1
x_37_4 0
d_36_2 0
x_37_5 0
d_36_3 0
x_38_0 0
x_38_1 0
x_38_6 0
x_38_7 0
x_38_2 1
d_37_0 1
x_38_3 0
d_37_1 0
x_38_4 0
d_37_2 0
x_38_5 0
d_37_3 0
x_39_0 0
x_39_1 0
x_39_6 1
x_39_7 0
x_39_2 0
d_38_0 0
x_39_3 0
d_38_1 0
x_39_4 0
d_38_2 0
x_39_5 1
d_38_3 1
x_40_0 0
x_40_1 1
x_40_6 0
x_40_7 0
x_40_2 1
d_39_0 1
x_40_3 0
d_39_1 0
x_40_4 1
d_39_2 1
x_40_5 0
d_39_3 0
x_41_0 1
x_41_1 0
x_41_6 1
x_41_7 0
x_41_2 0
d_40_0 0
x_41_3 0
d_40_1 1
x_41_4 0
d_40_2 0
x_41_5 1
d_40_3 1
x_42_0 0
x_42_1 1
x_42_6 0
x_42_7 0
x_42_2 0
d_41_0 1
x_42_3 0
d_41_1 0
x_42_4 1
d_41_2 1
x_42_5 0
d_41_3 0
x_43_0 1
x_43_1 0
x_43_6 0
x_43_7 0
x_43_2 0
d_42_0 0
x_43_3 0
d_42_1 1
x_43_4 0
d_42_2 0
x_43_5 0
d_42_3 0
x_44_0 0
x_44_1 0
x_44_6 0
x_44_7 0
x_44_2 1
d_43_0 1
x_44_3 0
d_43_1 0
x_44_4 0
d_43_2 0
x_44_5 0
d_43_3 0
x_45_0 0
x_45_1 0
x_45_6 1
x_45_7 0
x_45_2 0
d_44_0 0
x_45_3 0
d_44_1 0
x_45_4 0
d_44_2 0
x_45_5 1
d_44_3 1
x_46_0 0
x_46_1 1
x_46_6 0
x_46_7 0
x_46_2 1
d_45_0 1
x_46_3 0
d_45_1 0
x_46_4 1
d_45_2 1
x_46_5 0
d_45_3 0
x_47_0 1
x_47_1 0
x_47_6 1
x_47_7 0
x_47_2 0
d_46_0 0
x_47_3 0
d_46_1 1
x_47_4 0
d_46_2 0
x_47_5 1
d_46_3 1
x_48_0 0
x_48_1 1
x_48_6 0
x_48_7 0
x_48_2 0
d_47_0 1
x_48_3 0
d_47_1 0
x_48_4 1
d_47_2 1
x_48_5 0
d_47_3 0
x_49_0 1
x_49_1 0
x_49_6 0
x_49_7 0
x_49_2 0
d_48_0 0
x_49_3 0
d_48_1 1
x_49_4 0
d_48_2 0
x_49_5 0
d_48_3 0
x_50_0 0
x_50_1 0
x_50_6 0
x_50_7 0
x_50_2 1
d_49_0 1
x_50_3 0
d_49_1 0
x_50_4 0
d_49_2 0
x_50_5 0
d_49_3 0
x_51_0 0
x_51_1 0
x_51_6 1
x_51_7 0
x_51_2 0
d_50_0 0
x_51_3 0
d_50_1 0
x_51_4 0
d_50_2 0
x_51_5 1
d_50_3 1
